100 100
39 25 1
69 15 1
48 37 1
72 9 1
72 26 1
42 6 1
82 44 1
67 7 1
95 39 1
93 10 1
74 12 1
69 16 1
91 13 1
100 24 1
13 42 1
80 36 1
43 49 1
80 1 1
83 34 1
99 18 1
72 47 1
68 39 1
99 38 1
37 12 1
93 6 1
99 39 1
33 67 1
91 18 1
86 27 1
68 50 1
86 30 1
100 35 1
88 10 1
81 23 1
92 18 1
73 63 1
98 4 1
2 71 1
71 19 1
71 5 1
23 10 1
96 4 1
93 30 1
6 7 1
10 28 1
98 13 1
89 4 1
64 70 1
72 8 1
73 32 1
92 39 1
35 98 1
80 49 1
91 14 1
69 36 1
77 34 1
95 1 1
83 7 1
34 44 1
11 33 1
84 16 1
75 61 1
24 15 1
66 93 1
81 42 1
86 78 1
83 47 1
84 65 1
87 29 1
9 69 1
92 40 1
74 50 1
100 29 1
96 46 1
75 45 1
67 45 1
87 40 1
93 47 1
66 12 1
69 3 1
82 12 1
48 11 1
99 41 1
79 21 1
84 47 1
78 35 1
9 87 1
96 2 1
96 43 1
100 22 1
87 33 1
87 44 1
70 100 1
42 79 1
75 46 1
31 48 1
10 20 1
97 79 1
72 21 1
91 63 1
100 100 
100 100 
100 100 
100 100 
100 100 
100 100 
100 100 
100 100 
100 100 
100 100 
100 100 
100 100 
100 100 
100 100 
100 100 
100 100 
100 100 
100 100 
100 100 
100 100 
100 100 
100 100 
100 100 
100 100 
100 100 
100 100 
100 100 
100 100 
100 100 
100 100 
100 100 
100 100 
100 100 
100 100 
100 100 
100 100 
100 100 
100 100 
100 100 
100 100 
100 100 
100 100 
100 100 
100 100 
100 100 
100 100 
100 100 
100 100 
100 100 
100 100 
100 100 
100 100 
100 100 
100 100 
100 100 
100 100 
100 100 
100 100 
100 100 
100 100 
100 100 
100 100 
100 100 
100 100 
100 100 
100 100 
100 100 
100 100 
100 100 
100 100 
100 100 
100 100 
100 100 
100 100 
100 100 
100 100 
100 100 
100 100 
100 100 
100 100 
100 100 
100 100 
100 100 
100 100 
100 100 
100 100 
100 100 
100 100 
100 100 
100 100 
100 100 
100 100 
100 100 
100 100 
100 100 
100 100 
100 100 
100 100 
100 100 
100 100 
